NAME: instance_1569
TYPE: TSP
DIMENSION: 20
EDGE_WEIGHT_TYPE: EUC_2D
NODE_COORD_SECTION
0 62.79 11.72
1 28.25 46.00
2 80.40 43.13
3 89.56 76.50
4 3.30 51.12
5 45.13 11.60
6 87.40 18.53
7 98.26 0.93
8 34.33 42.39
9 21.53 24.41
10 57.68 17.14
11 44.86 73.34
12 81.49 20.25
13 86.28 77.27
14 17.36 30.15
15 52.99 96.70
16 51.69 71.91
17 3.81 33.03
18 2.80 71.48
19 24.94 66.74
EOF
